problem_generation/data/GISP/train/er_n=69_m=1360_p=0.60_SET2_setparam=100.00_alpha=0.50_341.lp
maximize
OBJ:100x0 + 100x1 + 100x2 + 100x3 + 100x4 + 100x5 + 100x6 + 100x7 + 100x8 + 100x9 + 100x10 + 100x11 + 100x12 + 100x13 + 100x14 + 100x15 + 100x16 + 100x17 + 100x18 + 100x19 + 100x20 + 100x21 + 100x22 + 100x23 + 100x24 + 100x25 + 100x26 + 100x27 + 100x28 + 100x29 + 100x30 + 100x31 + 100x32 + 100x33 + 100x34 + 100x35 + 100x36 + 100x37 + 100x38 + 100x39 + 100x40 + 100x41 + 100x42 + 100x43 + 100x44 + 100x45 + 100x46 + 100x47 + 100x48 + 100x49 + 100x50 + 100x51 + 100x52 + 100x53 + 100x54 + 100x55 + 100x56 + 100x57 + 100x58 + 100x59 + 100x60 + 100x61 + 100x62 + 100x63 + 100x64 + 100x65 + 100x66 + 100x67 + 100x68 - y28_58 - y28_67 - y9_63 - y40_41 - y8_18 - y48_54 - y21_46 - y0_23 - y11_23 - y40_59 - y21_55 - y21_64 - y10_27 - y2_32 - y25_43 - y44_56 - y2_50 - y3_15 - y25_52 - y2_59 - y3_24 - y32_60 - y3_33 - y22_46 - y15_25 - y17_44 - y18_21 - y17_53 - y47_66 - y6_34 - y48_49 - y21_32 - y0_9 - y6_52 - y10_31 - y2_36 - y25_47 - y22_23 - y32_55 - y51_68 - y13_51 - y14_28 - y13_60 - y35_60 - y1_67 - y16_65 - y36_52 - y28_48 - y36_61 - y17_66 - y29_31 - y29_40 - y48_53 - y6_47 - y29_49 - y40_58 - y10_17 - y31_67 - y10_44 - y25_42 - y3_5 - y32_50 - y43_50 - y22_27 - y13_46 - y43_59 - y1_53 - y35_55 - y43_68 - y16_51 - y17_25 - y36_38 - y17_34 - y28_34 - y9_30 - y55_60 - y36_56 - y6_15 - y36_65 - y50_58 - y6_33 - y29_35 - y50_67 - y29_44 - y40_44 - y42_63 - y21_49 - y2_17 - y10_30 - y20_62 - y31_62 - y12_67 - y23_67 - y51_58 - y35_41 - y32_54 - y16_37 - y51_67 - y24_50 - y28_29 - y28_38 - y5_45 - y9_52 - y50_53 - y6_28 - y29_30 - y21_26 - y6_37 - y21_35 - y19_65 - y2_3 - y20_39 - y10_16 - y20_48 - y10_25 - y62_63 - y2_21 - y31_57 - y54_59 - y20_66 - y12_62 - y32_40 - y51_53 - y35_36 - y4_67 - y13_45 - y43_58 - y1_52 - y13_54 - y16_50 - y57_60 - y36_37 - y5_31 - y49_65 - y17_42 - y5_49 - y6_14 - y5_58 - y6_23 - y42_44 - y27_55 - y50_57 - y2_7 - y31_43 - y12_39 - y54_63 - y12_57 - y4_53 - y16_18 - y12_66 - y13_31 - y23_66 - y53_67 - y16_27 - y64_67 - y1_38 - y13_40 - y24_40 - y1_56 - y16_54 - y5_17 - y1_65 - y5_26 - y17_28 - y57_64 - y17_37 - y28_37 - y26_67 - y6_9 - y27_41 - y30_46 - y27_59 - y50_61 - y19_55 - y30_64 - y23_25 - y23_34 - y23_43 - y23_52 - y13_17 - y32_39 - y13_35 - y24_35 - y4_66 - y16_31 - y35_44 - y37_63 - y16_49 - y46_50 - y38_46 - y17_23 - y49_55 - y46_68 - y9_28 - y38_64 - y5_39 - y18_58 - y27_36 - y18_67 - y8_32 - y42_43 - y27_54 - y30_50 - y8_59 - y20_24 - y30_59 - y8_68 - y20_33 - y0_64 - y12_29 - y31_42 - y4_34 - y1_10 - y4_43 - y12_56 - y1_19 - y23_56 - y53_57 - y16_17 - y1_28 - y53_66 - y4_61 - y16_26 - y22_60 - y1_37 - y56_62 - y16_35 - y5_7 - y65_67 - y9_14 - y15_48 - y57_63 - y15_57 - y38_59 - y7_53 - y18_53 - y15_66 - y26_66 - y18_62 - y8_27 - y30_36 - y27_49 - y11_41 - y8_54 - y30_54 - y30_63 - y60_64 - y11_68 - y33_65 - y24_25 - y45_57 - y3_51 - y34_66 - y3_60 - y38_45 - y57_58 - y7_39 - y26_52 - y49_54 - y38_63 - y18_57 - y8_22 - y19_22 - y27_35 - y8_31 - y19_31 - y27_44 - y19_40 - y30_40 - y27_53 - y11_36 - y0_45 - y11_45 - y11_54 - y41_64 - y52_64 - y22_59 - y45_61 - y3_55 - y14_55 - y37_57 - y14_64 - y26_29 - y37_66 - y5_6 - y7_25 - y38_40 - y7_34 - y38_49 - y0_4 - y7_52 - y18_52 - y7_61 - y29_58 - y41_50 - y33_46 - y44_46 - y4_19 - y33_55 - y44_55 - y10_62 - y1_4 - y25_60 - y2_67 - y14_41 - y37_43 - y3_50 - y37_52 - y18_20 - y3_68 - y14_68 - y26_33 - y7_29 - y18_29 - y7_38 - y15_51 - y7_56 - y18_56 - y0_26 - y40_62 - y63_64 - y11_35 - y41_54 - y33_59 - y25_55 - y44_68 - y3_27 - y34_42 - y37_38 - y34_51 - y7_15 - y3_63 - y26_28 - y36_60 - y17_65 - y8_16 - y48_52 - y0_12 - y19_25 - y48_61 - y6_55 - y29_57 - y21_53 - y63_68 - y10_34 - y33_36 - y4_9 - y33_45 - y25_50 - y51_62 - y14_22 - y2_66 - y14_31 - y37_42 - y3_49 - y7_10 - y15_32 - y26_32 - y55_68 - y7_28 - y9_56 - y5_67 - y9_65 - y29_43 - y40_52 - y21_48 - y29_61 - y10_20 - y21_66 - y25_27 - y33_49 - y2_43 - y3_8 - y25_45 - y3_17 - y3_26 - y24_67 - y35_67 - y14_44 - y36_41 - y47_50 - y17_46 - y28_46 - y18_23 - y36_59 - y17_55 - y28_55 - y36_68 - y9_51 - y5_62 - y6_27 - y28_64 - y21_25 - y21_34 - y40_47 - y29_56 - y40_56 - y6_63 - y54_58 - y10_33 - y33_35 - y33_44 - y2_38 - y25_40 - y32_48 - y43_48 - y35_53 - y32_66 - y66_68 - y1_60 - y35_62 - y55_58 - y55_67 - y5_48 - y47_63 - y5_57 - y28_59 - y17_68 - y6_31 - y28_68 - y29_33 - y61_65 - y40_51 - y2_6 - y10_28 - y39_64 - y2_33 - y23_65 - y3_7 - y13_39 - y3_16 - y32_52 - y14_25 - y13_57 - y16_53 - y1_64 - y17_36 - y36_49 - y9_32 - y5_43 - y47_58 - y5_52 - y5_61 - y58_64 - y29_37 - y6_44 - y39_50 - y31_46 - y39_59 - y23_51 - y31_64 - y54_66 - y43_47 - y1_41 - y24_43 - y43_56 - y1_50 - y24_52 - y35_61 - y28_31 - y57_67 - y9_27 - y28_40 - y9_36 - y50_55 - y42_51 - y21_28 - y42_60 - y39_63 - y12_46 - y31_59 - y12_55 - y31_68 - y4_51 - y13_29 - y4_60 - y32_51 - y24_47 - y1_54 - y5_15 - y1_63 - y65_66 - y9_13 - y36_39 - y38_58 - y17_35 - y28_35 - y49_67 - y50_59 - y19_62 - y31_36 - y12_32 - y31_45 - y12_41 - y31_63 - y12_59 - y1_22 - y53_60 - y13_33 - y32_46 - y16_29 - y43_46 - y1_40 - y24_51 - y35_51 - y16_47 - y46_57 - y9_26 - y38_62 - y5_37 - y49_62 - y9_35 - y27_34 - y6_11 - y19_39 - y27_52 - y50_54 - y30_48 - y30_57 - y0_53 - y12_18 - y8_66 - y11_62 - y2_4 - y4_23 - y31_40 - y12_36 - y12_45 - y20_58 - y23_63 - y13_28 - y24_28 - y4_59 - y45_60 - y56_60 - y24_37 - y16_33 - y22_67 - y37_65 - y16_42 - y38_39 - y9_12 - y46_61 - y5_32 - y7_51 - y18_51 - y26_64 - y27_29 - y7_60 - y8_25 - y8_34 - y27_56 - y0_48 - y60_62 - y0_57 - y11_57 - y12_22 - y20_35 - y23_31 - y12_40 - y13_14 - y25_68 - y4_45 - y1_21 - y4_54 - y1_30 - y16_28 - y45_64 - y1_39 - y3_58 - y14_67 - y9_16 - y38_52 - y18_46 - y49_61 - y7_55 - y8_20 - y19_20 - y8_29 - y19_29 - y19_38 - y0_43 - y30_56 - y20_21 - y11_52 - y60_66 - y23_26 - y12_35 - y34_41 - y53_54 - y22_48 - y53_63 - y16_23 - y14_53 - y45_68 - y15_27 - y15_45 - y38_47 - y18_41 - y7_50 - y26_63 - y27_28 - y0_38 - y60_61 - y4_8 - y23_30 - y25_49 - y34_36 - y25_67 - y22_43 - y37_50 - y8_10 - y27_32 - y11_15 - y18_63 - y8_28 - y19_28 - y29_60 - y8_37 - y19_37 - y21_56 - y6_67 - y30_37 - y41_52 - y4_12 - y10_46 - y44_48 - y10_55 - y33_57 - y33_66 - y1_6 - y25_62 - y3_34 - y22_56 - y14_52 - y18_22 - y15_35 - y26_35 - y47_67 - y26_44 - y7_40 - y0_1 - y9_68 - y40_46 - y30_32 - y21_51 - y29_64 - y21_60 - y41_47 - y25_39 - y4_16 - y52_65 - y25_48 - y44_61 - y22_24 - y3_20 - y25_66 - y66_67 - y14_47 - y14_56
 Subject to
C1: x0+x1-y0_1 <=1 
C2: x0+x2 <=1 
C3: x0+x3 <=1 
C4: x0+x4-y0_4 <=1 
C5: x0+x6 <=1 
C6: x0+x7 <=1 
C7: x0+x9-y0_9 <=1 
C8: x0+x11 <=1 
C9: x0+x12-y0_12 <=1 
C10: x0+x14 <=1 
C11: x0+x20 <=1 
C12: x0+x21 <=1 
C13: x0+x23-y0_23 <=1 
C14: x0+x26-y0_26 <=1 
C15: x0+x29 <=1 
C16: x0+x30 <=1 
C17: x0+x31 <=1 
C18: x0+x35 <=1 
C19: x0+x38-y0_38 <=1 
C20: x0+x41 <=1 
C21: x0+x43-y0_43 <=1 
C22: x0+x44 <=1 
C23: x0+x45-y0_45 <=1 
C24: x0+x48-y0_48 <=1 
C25: x0+x53-y0_53 <=1 
C26: x0+x55 <=1 
C27: x0+x56 <=1 
C28: x0+x57-y0_57 <=1 
C29: x0+x59 <=1 
C30: x0+x60 <=1 
C31: x0+x61 <=1 
C32: x0+x64-y0_64 <=1 
C33: x1+x2 <=1 
C34: x1+x4-y1_4 <=1 
C35: x1+x6-y1_6 <=1 
C36: x1+x10-y1_10 <=1 
C37: x1+x17 <=1 
C38: x1+x19-y1_19 <=1 
C39: x1+x21-y1_21 <=1 
C40: x1+x22-y1_22 <=1 
C41: x1+x23 <=1 
C42: x1+x27 <=1 
C43: x1+x28-y1_28 <=1 
C44: x1+x30-y1_30 <=1 
C45: x1+x32 <=1 
C46: x1+x33 <=1 
C47: x1+x35 <=1 
C48: x1+x37-y1_37 <=1 
C49: x1+x38-y1_38 <=1 
C50: x1+x39-y1_39 <=1 
C51: x1+x40-y1_40 <=1 
C52: x1+x41-y1_41 <=1 
C53: x1+x42 <=1 
C54: x1+x44 <=1 
C55: x1+x50-y1_50 <=1 
C56: x1+x51 <=1 
C57: x1+x52-y1_52 <=1 
C58: x1+x53-y1_53 <=1 
C59: x1+x54-y1_54 <=1 
C60: x1+x55 <=1 
C61: x1+x56-y1_56 <=1 
C62: x1+x60-y1_60 <=1 
C63: x1+x62 <=1 
C64: x1+x63-y1_63 <=1 
C65: x1+x64-y1_64 <=1 
C66: x1+x65-y1_65 <=1 
C67: x1+x67-y1_67 <=1 
C68: x1+x68 <=1 
C69: x2+x3-y2_3 <=1 
C70: x2+x4-y2_4 <=1 
C71: x2+x6-y2_6 <=1 
C72: x2+x7-y2_7 <=1 
C73: x2+x11 <=1 
C74: x2+x17-y2_17 <=1 
C75: x2+x20 <=1 
C76: x2+x21-y2_21 <=1 
C77: x2+x23 <=1 
C78: x2+x24 <=1 
C79: x2+x32-y2_32 <=1 
C80: x2+x33-y2_33 <=1 
C81: x2+x34 <=1 
C82: x2+x35 <=1 
C83: x2+x36-y2_36 <=1 
C84: x2+x38-y2_38 <=1 
C85: x2+x40 <=1 
C86: x2+x41 <=1 
C87: x2+x43-y2_43 <=1 
C88: x2+x46 <=1 
C89: x2+x48 <=1 
C90: x2+x50-y2_50 <=1 
C91: x2+x52 <=1 
C92: x2+x54 <=1 
C93: x2+x55 <=1 
C94: x2+x57 <=1 
C95: x2+x58 <=1 
C96: x2+x59-y2_59 <=1 
C97: x2+x60 <=1 
C98: x2+x61 <=1 
C99: x2+x63 <=1 
C100: x2+x64 <=1 
C101: x2+x65 <=1 
C102: x2+x66-y2_66 <=1 
C103: x2+x67-y2_67 <=1 
C104: x3+x4 <=1 
C105: x3+x5-y3_5 <=1 
C106: x3+x6 <=1 
C107: x3+x7-y3_7 <=1 
C108: x3+x8-y3_8 <=1 
C109: x3+x14 <=1 
C110: x3+x15-y3_15 <=1 
C111: x3+x16-y3_16 <=1 
C112: x3+x17-y3_17 <=1 
C113: x3+x19 <=1 
C114: x3+x20-y3_20 <=1 
C115: x3+x22 <=1 
C116: x3+x24-y3_24 <=1 
C117: x3+x26-y3_26 <=1 
C118: x3+x27-y3_27 <=1 
C119: x3+x31 <=1 
C120: x3+x33-y3_33 <=1 
C121: x3+x34-y3_34 <=1 
C122: x3+x37 <=1 
C123: x3+x39 <=1 
C124: x3+x41 <=1 
C125: x3+x44 <=1 
C126: x3+x47 <=1 
C127: x3+x49-y3_49 <=1 
C128: x3+x50-y3_50 <=1 
C129: x3+x51-y3_51 <=1 
C130: x3+x52 <=1 
C131: x3+x54 <=1 
C132: x3+x55-y3_55 <=1 
C133: x3+x56 <=1 
C134: x3+x58-y3_58 <=1 
C135: x3+x59 <=1 
C136: x3+x60-y3_60 <=1 
C137: x3+x62 <=1 
C138: x3+x63-y3_63 <=1 
C139: x3+x66 <=1 
C140: x3+x68-y3_68 <=1 
C141: x4+x5 <=1 
C142: x4+x6 <=1 
C143: x4+x8-y4_8 <=1 
C144: x4+x9-y4_9 <=1 
C145: x4+x11 <=1 
C146: x4+x12-y4_12 <=1 
C147: x4+x14 <=1 
C148: x4+x15 <=1 
C149: x4+x16-y4_16 <=1 
C150: x4+x19-y4_19 <=1 
C151: x4+x22 <=1 
C152: x4+x23-y4_23 <=1 
C153: x4+x25 <=1 
C154: x4+x28 <=1 
C155: x4+x34-y4_34 <=1 
C156: x4+x35 <=1 
C157: x4+x36 <=1 
C158: x4+x38 <=1 
C159: x4+x40 <=1 
C160: x4+x41 <=1 
C161: x4+x43-y4_43 <=1 
C162: x4+x45-y4_45 <=1 
C163: x4+x46 <=1 
C164: x4+x47 <=1 
C165: x4+x51-y4_51 <=1 
C166: x4+x53-y4_53 <=1 
C167: x4+x54-y4_54 <=1 
C168: x4+x55 <=1 
C169: x4+x57 <=1 
C170: x4+x58 <=1 
C171: x4+x59-y4_59 <=1 
C172: x4+x60-y4_60 <=1 
C173: x4+x61-y4_61 <=1 
C174: x4+x62 <=1 
C175: x4+x65 <=1 
C176: x4+x66-y4_66 <=1 
C177: x4+x67-y4_67 <=1 
C178: x5+x6-y5_6 <=1 
C179: x5+x7-y5_7 <=1 
C180: x5+x9 <=1 
C181: x5+x15-y5_15 <=1 
C182: x5+x16 <=1 
C183: x5+x17-y5_17 <=1 
C184: x5+x18 <=1 
C185: x5+x20 <=1 
C186: x5+x21 <=1 
C187: x5+x23 <=1 
C188: x5+x24 <=1 
C189: x5+x26-y5_26 <=1 
C190: x5+x27 <=1 
C191: x5+x29 <=1 
C192: x5+x31-y5_31 <=1 
C193: x5+x32-y5_32 <=1 
C194: x5+x33 <=1 
C195: x5+x36 <=1 
C196: x5+x37-y5_37 <=1 
C197: x5+x39-y5_39 <=1 
C198: x5+x40 <=1 
C199: x5+x42 <=1 
C200: x5+x43-y5_43 <=1 
C201: x5+x44 <=1 
C202: x5+x45-y5_45 <=1 
C203: x5+x46 <=1 
C204: x5+x47 <=1 
C205: x5+x48-y5_48 <=1 
C206: x5+x49-y5_49 <=1 
C207: x5+x50 <=1 
C208: x5+x51 <=1 
C209: x5+x52-y5_52 <=1 
C210: x5+x53 <=1 
C211: x5+x56 <=1 
C212: x5+x57-y5_57 <=1 
C213: x5+x58-y5_58 <=1 
C214: x5+x61-y5_61 <=1 
C215: x5+x62-y5_62 <=1 
C216: x5+x66 <=1 
C217: x5+x67-y5_67 <=1 
C218: x5+x68 <=1 
C219: x6+x9-y6_9 <=1 
C220: x6+x10 <=1 
C221: x6+x11-y6_11 <=1 
C222: x6+x14-y6_14 <=1 
C223: x6+x15-y6_15 <=1 
C224: x6+x16 <=1 
C225: x6+x18 <=1 
C226: x6+x20 <=1 
C227: x6+x21 <=1 
C228: x6+x22 <=1 
C229: x6+x23-y6_23 <=1 
C230: x6+x26 <=1 
C231: x6+x27-y6_27 <=1 
C232: x6+x28-y6_28 <=1 
C233: x6+x30 <=1 
C234: x6+x31-y6_31 <=1 
C235: x6+x32 <=1 
C236: x6+x33-y6_33 <=1 
C237: x6+x34-y6_34 <=1 
C238: x6+x37-y6_37 <=1 
C239: x6+x38 <=1 
C240: x6+x42 <=1 
C241: x6+x43 <=1 
C242: x6+x44-y6_44 <=1 
C243: x6+x47-y6_47 <=1 
C244: x6+x48 <=1 
C245: x6+x49 <=1 
C246: x6+x52-y6_52 <=1 
C247: x6+x54 <=1 
C248: x6+x55-y6_55 <=1 
C249: x6+x57 <=1 
C250: x6+x60 <=1 
C251: x6+x63-y6_63 <=1 
C252: x6+x64 <=1 
C253: x6+x66 <=1 
C254: x6+x67-y6_67 <=1 
C255: x6+x68 <=1 
C256: x7+x8 <=1 
C257: x7+x10-y7_10 <=1 
C258: x7+x13 <=1 
C259: x7+x14 <=1 
C260: x7+x15-y7_15 <=1 
C261: x7+x17 <=1 
C262: x7+x20 <=1 
C263: x7+x21 <=1 
C264: x7+x22 <=1 
C265: x7+x24 <=1 
C266: x7+x25-y7_25 <=1 
C267: x7+x26 <=1 
C268: x7+x28-y7_28 <=1 
C269: x7+x29-y7_29 <=1 
C270: x7+x30 <=1 
C271: x7+x33 <=1 
C272: x7+x34-y7_34 <=1 
C273: x7+x35 <=1 
C274: x7+x36 <=1 
C275: x7+x38-y7_38 <=1 
C276: x7+x39-y7_39 <=1 
C277: x7+x40-y7_40 <=1 
C278: x7+x41 <=1 
C279: x7+x47 <=1 
C280: x7+x48 <=1 
C281: x7+x50-y7_50 <=1 
C282: x7+x51-y7_51 <=1 
C283: x7+x52-y7_52 <=1 
C284: x7+x53-y7_53 <=1 
C285: x7+x54 <=1 
C286: x7+x55-y7_55 <=1 
C287: x7+x56-y7_56 <=1 
C288: x7+x60-y7_60 <=1 
C289: x7+x61-y7_61 <=1 
C290: x7+x63 <=1 
C291: x7+x65 <=1 
C292: x8+x10-y8_10 <=1 
C293: x8+x12 <=1 
C294: x8+x16-y8_16 <=1 
C295: x8+x18-y8_18 <=1 
C296: x8+x20-y8_20 <=1 
C297: x8+x22-y8_22 <=1 
C298: x8+x25-y8_25 <=1 
C299: x8+x26 <=1 
C300: x8+x27-y8_27 <=1 
C301: x8+x28-y8_28 <=1 
C302: x8+x29-y8_29 <=1 
C303: x8+x31-y8_31 <=1 
C304: x8+x32-y8_32 <=1 
C305: x8+x33 <=1 
C306: x8+x34-y8_34 <=1 
C307: x8+x35 <=1 
C308: x8+x37-y8_37 <=1 
C309: x8+x42 <=1 
C310: x8+x44 <=1 
C311: x8+x46 <=1 
C312: x8+x49 <=1 
C313: x8+x52 <=1 
C314: x8+x53 <=1 
C315: x8+x54-y8_54 <=1 
C316: x8+x55 <=1 
C317: x8+x56 <=1 
C318: x8+x57 <=1 
C319: x8+x59-y8_59 <=1 
C320: x8+x60 <=1 
C321: x8+x62 <=1 
C322: x8+x63 <=1 
C323: x8+x66-y8_66 <=1 
C324: x8+x67 <=1 
C325: x8+x68-y8_68 <=1 
C326: x9+x12-y9_12 <=1 
C327: x9+x13-y9_13 <=1 
C328: x9+x14-y9_14 <=1 
C329: x9+x16-y9_16 <=1 
C330: x9+x17 <=1 
C331: x9+x23 <=1 
C332: x9+x24 <=1 
C333: x9+x25 <=1 
C334: x9+x26-y9_26 <=1 
C335: x9+x27-y9_27 <=1 
C336: x9+x28-y9_28 <=1 
C337: x9+x29 <=1 
C338: x9+x30-y9_30 <=1 
C339: x9+x32-y9_32 <=1 
C340: x9+x35-y9_35 <=1 
C341: x9+x36-y9_36 <=1 
C342: x9+x41 <=1 
C343: x9+x42 <=1 
C344: x9+x45 <=1 
C345: x9+x46 <=1 
C346: x9+x47 <=1 
C347: x9+x51-y9_51 <=1 
C348: x9+x52-y9_52 <=1 
C349: x9+x55 <=1 
C350: x9+x56-y9_56 <=1 
C351: x9+x62 <=1 
C352: x9+x63-y9_63 <=1 
C353: x9+x64 <=1 
C354: x9+x65-y9_65 <=1 
C355: x9+x66 <=1 
C356: x9+x68-y9_68 <=1 
C357: x10+x11 <=1 
C358: x10+x14 <=1 
C359: x10+x16-y10_16 <=1 
C360: x10+x17-y10_17 <=1 
C361: x10+x18 <=1 
C362: x10+x20-y10_20 <=1 
C363: x10+x21 <=1 
C364: x10+x25-y10_25 <=1 
C365: x10+x26 <=1 
C366: x10+x27-y10_27 <=1 
C367: x10+x28-y10_28 <=1 
C368: x10+x30-y10_30 <=1 
C369: x10+x31-y10_31 <=1 
C370: x10+x32 <=1 
C371: x10+x33-y10_33 <=1 
C372: x10+x34-y10_34 <=1 
C373: x10+x35 <=1 
C374: x10+x36 <=1 
C375: x10+x37 <=1 
C376: x10+x38 <=1 
C377: x10+x39 <=1 
C378: x10+x41 <=1 
C379: x10+x44-y10_44 <=1 
C380: x10+x46-y10_46 <=1 
C381: x10+x53 <=1 
C382: x10+x54 <=1 
C383: x10+x55-y10_55 <=1 
C384: x10+x59 <=1 
C385: x10+x60 <=1 
C386: x10+x62-y10_62 <=1 
C387: x10+x68 <=1 
C388: x11+x12 <=1 
C389: x11+x15-y11_15 <=1 
C390: x11+x17 <=1 
C391: x11+x18 <=1 
C392: x11+x20 <=1 
C393: x11+x22 <=1 
C394: x11+x23-y11_23 <=1 
C395: x11+x24 <=1 
C396: x11+x25 <=1 
C397: x11+x31 <=1 
C398: x11+x35-y11_35 <=1 
C399: x11+x36-y11_36 <=1 
C400: x11+x40 <=1 
C401: x11+x41-y11_41 <=1 
C402: x11+x44 <=1 
C403: x11+x45-y11_45 <=1 
C404: x11+x46 <=1 
C405: x11+x47 <=1 
C406: x11+x48 <=1 
C407: x11+x49 <=1 
C408: x11+x51 <=1 
C409: x11+x52-y11_52 <=1 
C410: x11+x53 <=1 
C411: x11+x54-y11_54 <=1 
C412: x11+x57-y11_57 <=1 
C413: x11+x58 <=1 
C414: x11+x60 <=1 
C415: x11+x62-y11_62 <=1 
C416: x11+x65 <=1 
C417: x11+x68-y11_68 <=1 
C418: x12+x13 <=1 
C419: x12+x15 <=1 
C420: x12+x18-y12_18 <=1 
C421: x12+x19 <=1 
C422: x12+x22-y12_22 <=1 
C423: x12+x24 <=1 
C424: x12+x27 <=1 
C425: x12+x29-y12_29 <=1 
C426: x12+x31 <=1 
C427: x12+x32-y12_32 <=1 
C428: x12+x35-y12_35 <=1 
C429: x12+x36-y12_36 <=1 
C430: x12+x39-y12_39 <=1 
C431: x12+x40-y12_40 <=1 
C432: x12+x41-y12_41 <=1 
C433: x12+x43 <=1 
C434: x12+x45-y12_45 <=1 
C435: x12+x46-y12_46 <=1 
C436: x12+x48 <=1 
C437: x12+x49 <=1 
C438: x12+x53 <=1 
C439: x12+x54 <=1 
C440: x12+x55-y12_55 <=1 
C441: x12+x56-y12_56 <=1 
C442: x12+x57-y12_57 <=1 
C443: x12+x58 <=1 
C444: x12+x59-y12_59 <=1 
C445: x12+x61 <=1 
C446: x12+x62-y12_62 <=1 
C447: x12+x65 <=1 
C448: x12+x66-y12_66 <=1 
C449: x12+x67-y12_67 <=1 
C450: x13+x14-y13_14 <=1 
C451: x13+x15 <=1 
C452: x13+x17-y13_17 <=1 
C453: x13+x22 <=1 
C454: x13+x25 <=1 
C455: x13+x26 <=1 
C456: x13+x28-y13_28 <=1 
C457: x13+x29-y13_29 <=1 
C458: x13+x30 <=1 
C459: x13+x31-y13_31 <=1 
C460: x13+x32 <=1 
C461: x13+x33-y13_33 <=1 
C462: x13+x34 <=1 
C463: x13+x35-y13_35 <=1 
C464: x13+x38 <=1 
C465: x13+x39-y13_39 <=1 
C466: x13+x40-y13_40 <=1 
C467: x13+x41 <=1 
C468: x13+x45-y13_45 <=1 
C469: x13+x46-y13_46 <=1 
C470: x13+x49 <=1 
C471: x13+x50 <=1 
C472: x13+x51-y13_51 <=1 
C473: x13+x54-y13_54 <=1 
C474: x13+x57-y13_57 <=1 
C475: x13+x58 <=1 
C476: x13+x60-y13_60 <=1 
C477: x13+x61 <=1 
C478: x13+x64 <=1 
C479: x13+x65 <=1 
C480: x13+x66 <=1 
C481: x13+x68 <=1 
C482: x14+x15 <=1 
C483: x14+x16 <=1 
C484: x14+x17 <=1 
C485: x14+x20 <=1 
C486: x14+x21 <=1 
C487: x14+x22-y14_22 <=1 
C488: x14+x25-y14_25 <=1 
C489: x14+x26 <=1 
C490: x14+x28-y14_28 <=1 
C491: x14+x31-y14_31 <=1 
C492: x14+x38 <=1 
C493: x14+x39 <=1 
C494: x14+x40 <=1 
C495: x14+x41-y14_41 <=1 
C496: x14+x42 <=1 
C497: x14+x44-y14_44 <=1 
C498: x14+x45 <=1 
C499: x14+x47-y14_47 <=1 
C500: x14+x48 <=1 
C501: x14+x49 <=1 
C502: x14+x50 <=1 
C503: x14+x52-y14_52 <=1 
C504: x14+x53-y14_53 <=1 
C505: x14+x55-y14_55 <=1 
C506: x14+x56-y14_56 <=1 
C507: x14+x60 <=1 
C508: x14+x61 <=1 
C509: x14+x62 <=1 
C510: x14+x63 <=1 
C511: x14+x64-y14_64 <=1 
C512: x14+x66 <=1 
C513: x14+x67-y14_67 <=1 
C514: x14+x68-y14_68 <=1 
C515: x15+x18 <=1 
C516: x15+x19 <=1 
C517: x15+x20 <=1 
C518: x15+x21 <=1 
C519: x15+x23 <=1 
C520: x15+x25-y15_25 <=1 
C521: x15+x26 <=1 
C522: x15+x27-y15_27 <=1 
C523: x15+x29 <=1 
C524: x15+x32-y15_32 <=1 
C525: x15+x33 <=1 
C526: x15+x35-y15_35 <=1 
C527: x15+x36 <=1 
C528: x15+x37 <=1 
C529: x15+x43 <=1 
C530: x15+x45-y15_45 <=1 
C531: x15+x46 <=1 
C532: x15+x47 <=1 
C533: x15+x48-y15_48 <=1 
C534: x15+x51-y15_51 <=1 
C535: x15+x54 <=1 
C536: x15+x57-y15_57 <=1 
C537: x15+x61 <=1 
C538: x15+x66-y15_66 <=1 
C539: x15+x68 <=1 
C540: x16+x17-y16_17 <=1 
C541: x16+x18-y16_18 <=1 
C542: x16+x21 <=1 
C543: x16+x23-y16_23 <=1 
C544: x16+x24 <=1 
C545: x16+x25 <=1 
C546: x16+x26-y16_26 <=1 
C547: x16+x27-y16_27 <=1 
C548: x16+x28-y16_28 <=1 
C549: x16+x29-y16_29 <=1 
C550: x16+x30 <=1 
C551: x16+x31-y16_31 <=1 
C552: x16+x32 <=1 
C553: x16+x33-y16_33 <=1 
C554: x16+x34 <=1 
C555: x16+x35-y16_35 <=1 
C556: x16+x36 <=1 
C557: x16+x37-y16_37 <=1 
C558: x16+x39 <=1 
C559: x16+x41 <=1 
C560: x16+x42-y16_42 <=1 
C561: x16+x43 <=1 
C562: x16+x44 <=1 
C563: x16+x46 <=1 
C564: x16+x47-y16_47 <=1 
C565: x16+x48 <=1 
C566: x16+x49-y16_49 <=1 
C567: x16+x50-y16_50 <=1 
C568: x16+x51-y16_51 <=1 
C569: x16+x53-y16_53 <=1 
C570: x16+x54-y16_54 <=1 
C571: x16+x56 <=1 
C572: x16+x57 <=1 
C573: x16+x59 <=1 
C574: x16+x62 <=1 
C575: x16+x64 <=1 
C576: x16+x65-y16_65 <=1 
C577: x16+x66 <=1 
C578: x16+x68 <=1 
C579: x17+x22 <=1 
C580: x17+x23-y17_23 <=1 
C581: x17+x25-y17_25 <=1 
C582: x17+x28-y17_28 <=1 
C583: x17+x30 <=1 
C584: x17+x34-y17_34 <=1 
C585: x17+x35-y17_35 <=1 
C586: x17+x36-y17_36 <=1 
C587: x17+x37-y17_37 <=1 
C588: x17+x38 <=1 
C589: x17+x42-y17_42 <=1 
C590: x17+x44-y17_44 <=1 
C591: x17+x46-y17_46 <=1 
C592: x17+x47 <=1 
C593: x17+x49 <=1 
C594: x17+x50 <=1 
C595: x17+x51 <=1 
C596: x17+x52 <=1 
C597: x17+x53-y17_53 <=1 
C598: x17+x55-y17_55 <=1 
C599: x17+x59 <=1 
C600: x17+x62 <=1 
C601: x17+x64 <=1 
C602: x17+x65-y17_65 <=1 
C603: x17+x66-y17_66 <=1 
C604: x17+x67 <=1 
C605: x17+x68-y17_68 <=1 
C606: x18+x20-y18_20 <=1 
C607: x18+x21-y18_21 <=1 
C608: x18+x22-y18_22 <=1 
C609: x18+x23-y18_23 <=1 
C610: x18+x29-y18_29 <=1 
C611: x18+x30 <=1 
C612: x18+x31 <=1 
C613: x18+x34 <=1 
C614: x18+x37 <=1 
C615: x18+x39 <=1 
C616: x18+x40 <=1 
C617: x18+x41-y18_41 <=1 
C618: x18+x43 <=1 
C619: x18+x44 <=1 
C620: x18+x45 <=1 
C621: x18+x46-y18_46 <=1 
C622: x18+x49 <=1 
C623: x18+x50 <=1 
C624: x18+x51-y18_51 <=1 
C625: x18+x52-y18_52 <=1 
C626: x18+x53-y18_53 <=1 
C627: x18+x56-y18_56 <=1 
C628: x18+x57-y18_57 <=1 
C629: x18+x58-y18_58 <=1 
C630: x18+x62-y18_62 <=1 
C631: x18+x63-y18_63 <=1 
C632: x18+x64 <=1 
C633: x18+x65 <=1 
C634: x18+x66 <=1 
C635: x18+x67-y18_67 <=1 
C636: x18+x68 <=1 
C637: x19+x20-y19_20 <=1 
C638: x19+x22-y19_22 <=1 
C639: x19+x23 <=1 
C640: x19+x25-y19_25 <=1 
C641: x19+x26 <=1 
C642: x19+x27 <=1 
C643: x19+x28-y19_28 <=1 
C644: x19+x29-y19_29 <=1 
C645: x19+x30 <=1 
C646: x19+x31-y19_31 <=1 
C647: x19+x37-y19_37 <=1 
C648: x19+x38-y19_38 <=1 
C649: x19+x39-y19_39 <=1 
C650: x19+x40-y19_40 <=1 
C651: x19+x41 <=1 
C652: x19+x42 <=1 
C653: x19+x47 <=1 
C654: x19+x48 <=1 
C655: x19+x50 <=1 
C656: x19+x51 <=1 
C657: x19+x54 <=1 
C658: x19+x55-y19_55 <=1 
C659: x19+x60 <=1 
C660: x19+x62-y19_62 <=1 
C661: x19+x63 <=1 
C662: x19+x65-y19_65 <=1 
C663: x19+x66 <=1 
C664: x20+x21-y20_21 <=1 
C665: x20+x24-y20_24 <=1 
C666: x20+x32 <=1 
C667: x20+x33-y20_33 <=1 
C668: x20+x35-y20_35 <=1 
C669: x20+x36 <=1 
C670: x20+x39-y20_39 <=1 
C671: x20+x40 <=1 
C672: x20+x42 <=1 
C673: x20+x43 <=1 
C674: x20+x47 <=1 
C675: x20+x48-y20_48 <=1 
C676: x20+x50 <=1 
C677: x20+x54 <=1 
C678: x20+x55 <=1 
C679: x20+x58-y20_58 <=1 
C680: x20+x59 <=1 
C681: x20+x60 <=1 
C682: x20+x62-y20_62 <=1 
C683: x20+x65 <=1 
C684: x20+x66-y20_66 <=1 
C685: x20+x67 <=1 
C686: x21+x25-y21_25 <=1 
C687: x21+x26-y21_26 <=1 
C688: x21+x27 <=1 
C689: x21+x28-y21_28 <=1 
C690: x21+x30 <=1 
C691: x21+x32-y21_32 <=1 
C692: x21+x33 <=1 
C693: x21+x34-y21_34 <=1 
C694: x21+x35-y21_35 <=1 
C695: x21+x36 <=1 
C696: x21+x46-y21_46 <=1 
C697: x21+x47 <=1 
C698: x21+x48-y21_48 <=1 
C699: x21+x49-y21_49 <=1 
C700: x21+x50 <=1 
C701: x21+x51-y21_51 <=1 
C702: x21+x53-y21_53 <=1 
C703: x21+x55-y21_55 <=1 
C704: x21+x56-y21_56 <=1 
C705: x21+x57 <=1 
C706: x21+x59 <=1 
C707: x21+x60-y21_60 <=1 
C708: x21+x61 <=1 
C709: x21+x62 <=1 
C710: x21+x63 <=1 
C711: x21+x64-y21_64 <=1 
C712: x21+x65 <=1 
C713: x21+x66-y21_66 <=1 
C714: x21+x68 <=1 
C715: x22+x23-y22_23 <=1 
C716: x22+x24-y22_24 <=1 
C717: x22+x25 <=1 
C718: x22+x26 <=1 
C719: x22+x27-y22_27 <=1 
C720: x22+x29 <=1 
C721: x22+x30 <=1 
C722: x22+x31 <=1 
C723: x22+x38 <=1 
C724: x22+x39 <=1 
C725: x22+x41 <=1 
C726: x22+x43-y22_43 <=1 
C727: x22+x46-y22_46 <=1 
C728: x22+x48-y22_48 <=1 
C729: x22+x50 <=1 
C730: x22+x51 <=1 
C731: x22+x53 <=1 
C732: x22+x54 <=1 
C733: x22+x55 <=1 
C734: x22+x56-y22_56 <=1 
C735: x22+x58 <=1 
C736: x22+x59-y22_59 <=1 
C737: x22+x60-y22_60 <=1 
C738: x22+x65 <=1 
C739: x22+x67-y22_67 <=1 
C740: x23+x24 <=1 
C741: x23+x25-y23_25 <=1 
C742: x23+x26-y23_26 <=1 
C743: x23+x27 <=1 
C744: x23+x28 <=1 
C745: x23+x30-y23_30 <=1 
C746: x23+x31-y23_31 <=1 
C747: x23+x32 <=1 
C748: x23+x34-y23_34 <=1 
C749: x23+x38 <=1 
C750: x23+x40 <=1 
C751: x23+x41 <=1 
C752: x23+x43-y23_43 <=1 
C753: x23+x45 <=1 
C754: x23+x47 <=1 
C755: x23+x48 <=1 
C756: x23+x49 <=1 
C757: x23+x50 <=1 
C758: x23+x51-y23_51 <=1 
C759: x23+x52-y23_52 <=1 
C760: x23+x56-y23_56 <=1 
C761: x23+x57 <=1 
C762: x23+x58 <=1 
C763: x23+x61 <=1 
C764: x23+x63-y23_63 <=1 
C765: x23+x64 <=1 
C766: x23+x65-y23_65 <=1 
C767: x23+x66-y23_66 <=1 
C768: x23+x67-y23_67 <=1 
C769: x24+x25-y24_25 <=1 
C770: x24+x27 <=1 
C771: x24+x28-y24_28 <=1 
C772: x24+x33 <=1 
C773: x24+x35-y24_35 <=1 
C774: x24+x36 <=1 
C775: x24+x37-y24_37 <=1 
C776: x24+x38 <=1 
C777: x24+x40-y24_40 <=1 
C778: x24+x42 <=1 
C779: x24+x43-y24_43 <=1 
C780: x24+x44 <=1 
C781: x24+x47-y24_47 <=1 
C782: x24+x49 <=1 
C783: x24+x50-y24_50 <=1 
C784: x24+x51-y24_51 <=1 
C785: x24+x52-y24_52 <=1 
C786: x24+x53 <=1 
C787: x24+x54 <=1 
C788: x24+x64 <=1 
C789: x24+x67-y24_67 <=1 
C790: x24+x68 <=1 
C791: x25+x26 <=1 
C792: x25+x27-y25_27 <=1 
C793: x25+x32 <=1 
C794: x25+x33 <=1 
C795: x25+x34 <=1 
C796: x25+x37 <=1 
C797: x25+x39-y25_39 <=1 
C798: x25+x40-y25_40 <=1 
C799: x25+x42-y25_42 <=1 
C800: x25+x43-y25_43 <=1 
C801: x25+x45-y25_45 <=1 
C802: x25+x46 <=1 
C803: x25+x47-y25_47 <=1 
C804: x25+x48-y25_48 <=1 
C805: x25+x49-y25_49 <=1 
C806: x25+x50-y25_50 <=1 
C807: x25+x52-y25_52 <=1 
C808: x25+x55-y25_55 <=1 
C809: x25+x59 <=1 
C810: x25+x60-y25_60 <=1 
C811: x25+x61 <=1 
C812: x25+x62-y25_62 <=1 
C813: x25+x66-y25_66 <=1 
C814: x25+x67-y25_67 <=1 
C815: x25+x68-y25_68 <=1 
C816: x26+x27 <=1 
C817: x26+x28-y26_28 <=1 
C818: x26+x29-y26_29 <=1 
C819: x26+x32-y26_32 <=1 
C820: x26+x33-y26_33 <=1 
C821: x26+x35-y26_35 <=1 
C822: x26+x37 <=1 
C823: x26+x40 <=1 
C824: x26+x41 <=1 
C825: x26+x43 <=1 
C826: x26+x44-y26_44 <=1 
C827: x26+x48 <=1 
C828: x26+x49 <=1 
C829: x26+x52-y26_52 <=1 
C830: x26+x56 <=1 
C831: x26+x57 <=1 
C832: x26+x60 <=1 
C833: x26+x62 <=1 
C834: x26+x63-y26_63 <=1 
C835: x26+x64-y26_64 <=1 
C836: x26+x66-y26_66 <=1 
C837: x26+x67-y26_67 <=1 
C838: x26+x68 <=1 
C839: x27+x28-y27_28 <=1 
C840: x27+x29-y27_29 <=1 
C841: x27+x31 <=1 
C842: x27+x32-y27_32 <=1 
C843: x27+x33 <=1 
C844: x27+x34-y27_34 <=1 
C845: x27+x35-y27_35 <=1 
C846: x27+x36-y27_36 <=1 
C847: x27+x39 <=1 
C848: x27+x41-y27_41 <=1 
C849: x27+x43 <=1 
C850: x27+x44-y27_44 <=1 
C851: x27+x47 <=1 
C852: x27+x49-y27_49 <=1 
C853: x27+x50 <=1 
C854: x27+x52-y27_52 <=1 
C855: x27+x53-y27_53 <=1 
C856: x27+x54-y27_54 <=1 
C857: x27+x55-y27_55 <=1 
C858: x27+x56-y27_56 <=1 
C859: x27+x57 <=1 
C860: x27+x58 <=1 
C861: x27+x59-y27_59 <=1 
C862: x27+x60 <=1 
C863: x27+x62 <=1 
C864: x27+x64 <=1 
C865: x27+x65 <=1 
C866: x27+x67 <=1 
C867: x28+x29-y28_29 <=1 
C868: x28+x31-y28_31 <=1 
C869: x28+x33 <=1 
C870: x28+x34-y28_34 <=1 
C871: x28+x35-y28_35 <=1 
C872: x28+x36 <=1 
C873: x28+x37-y28_37 <=1 
C874: x28+x38-y28_38 <=1 
C875: x28+x40-y28_40 <=1 
C876: x28+x41 <=1 
C877: x28+x44 <=1 
C878: x28+x45 <=1 
C879: x28+x46-y28_46 <=1 
C880: x28+x47 <=1 
C881: x28+x48-y28_48 <=1 
C882: x28+x49 <=1 
C883: x28+x52 <=1 
C884: x28+x54 <=1 
C885: x28+x55-y28_55 <=1 
C886: x28+x56 <=1 
C887: x28+x57 <=1 
C888: x28+x58-y28_58 <=1 
C889: x28+x59-y28_59 <=1 
C890: x28+x60 <=1 
C891: x28+x63 <=1 
C892: x28+x64-y28_64 <=1 
C893: x28+x67-y28_67 <=1 
C894: x28+x68-y28_68 <=1 
C895: x29+x30-y29_30 <=1 
C896: x29+x31-y29_31 <=1 
C897: x29+x32 <=1 
C898: x29+x33-y29_33 <=1 
C899: x29+x34 <=1 
C900: x29+x35-y29_35 <=1 
C901: x29+x36 <=1 
C902: x29+x37-y29_37 <=1 
C903: x29+x39 <=1 
C904: x29+x40-y29_40 <=1 
C905: x29+x42 <=1 
C906: x29+x43-y29_43 <=1 
C907: x29+x44-y29_44 <=1 
C908: x29+x45 <=1 
C909: x29+x47 <=1 
C910: x29+x49-y29_49 <=1 
C911: x29+x51 <=1 
C912: x29+x52 <=1 
C913: x29+x56-y29_56 <=1 
C914: x29+x57-y29_57 <=1 
C915: x29+x58-y29_58 <=1 
C916: x29+x60-y29_60 <=1 
C917: x29+x61-y29_61 <=1 
C918: x29+x62 <=1 
C919: x29+x63 <=1 
C920: x29+x64-y29_64 <=1 
C921: x29+x65 <=1 
C922: x29+x67 <=1 
C923: x30+x31 <=1 
C924: x30+x32-y30_32 <=1 
C925: x30+x36-y30_36 <=1 
C926: x30+x37-y30_37 <=1 
C927: x30+x38 <=1 
C928: x30+x40-y30_40 <=1 
C929: x30+x41 <=1 
C930: x30+x42 <=1 
C931: x30+x43 <=1 
C932: x30+x45 <=1 
C933: x30+x46-y30_46 <=1 
C934: x30+x47 <=1 
C935: x30+x48-y30_48 <=1 
C936: x30+x49 <=1 
C937: x30+x50-y30_50 <=1 
C938: x30+x51 <=1 
C939: x30+x54-y30_54 <=1 
C940: x30+x56-y30_56 <=1 
C941: x30+x57-y30_57 <=1 
C942: x30+x59-y30_59 <=1 
C943: x30+x63-y30_63 <=1 
C944: x30+x64-y30_64 <=1 
C945: x30+x65 <=1 
C946: x30+x66 <=1 
C947: x30+x67 <=1 
C948: x31+x33 <=1 
C949: x31+x36-y31_36 <=1 
C950: x31+x37 <=1 
C951: x31+x39 <=1 
C952: x31+x40-y31_40 <=1 
C953: x31+x42-y31_42 <=1 
C954: x31+x43-y31_43 <=1 
C955: x31+x44 <=1 
C956: x31+x45-y31_45 <=1 
C957: x31+x46-y31_46 <=1 
C958: x31+x49 <=1 
C959: x31+x51 <=1 
C960: x31+x55 <=1 
C961: x31+x56 <=1 
C962: x31+x57-y31_57 <=1 
C963: x31+x59-y31_59 <=1 
C964: x31+x60 <=1 
C965: x31+x62-y31_62 <=1 
C966: x31+x63-y31_63 <=1 
C967: x31+x64-y31_64 <=1 
C968: x31+x66 <=1 
C969: x31+x67-y31_67 <=1 
C970: x31+x68-y31_68 <=1 
C971: x32+x33 <=1 
C972: x32+x35 <=1 
C973: x32+x36 <=1 
C974: x32+x39-y32_39 <=1 
C975: x32+x40-y32_40 <=1 
C976: x32+x45 <=1 
C977: x32+x46-y32_46 <=1 
C978: x32+x48-y32_48 <=1 
C979: x32+x49 <=1 
C980: x32+x50-y32_50 <=1 
C981: x32+x51-y32_51 <=1 
C982: x32+x52-y32_52 <=1 
C983: x32+x54-y32_54 <=1 
C984: x32+x55-y32_55 <=1 
C985: x32+x60-y32_60 <=1 
C986: x32+x62 <=1 
C987: x32+x66-y32_66 <=1 
C988: x32+x68 <=1 
C989: x33+x34 <=1 
C990: x33+x35-y33_35 <=1 
C991: x33+x36-y33_36 <=1 
C992: x33+x37 <=1 
C993: x33+x38 <=1 
C994: x33+x39 <=1 
C995: x33+x42 <=1 
C996: x33+x44-y33_44 <=1 
C997: x33+x45-y33_45 <=1 
C998: x33+x46-y33_46 <=1 
C999: x33+x48 <=1 
C1000: x33+x49-y33_49 <=1 
C1001: x33+x50 <=1 
C1002: x33+x51 <=1 
C1003: x33+x53 <=1 
C1004: x33+x54 <=1 
C1005: x33+x55-y33_55 <=1 
C1006: x33+x57-y33_57 <=1 
C1007: x33+x58 <=1 
C1008: x33+x59-y33_59 <=1 
C1009: x33+x60 <=1 
C1010: x33+x65-y33_65 <=1 
C1011: x33+x66-y33_66 <=1 
C1012: x33+x68 <=1 
C1013: x34+x36-y34_36 <=1 
C1014: x34+x37 <=1 
C1015: x34+x41-y34_41 <=1 
C1016: x34+x42-y34_42 <=1 
C1017: x34+x44 <=1 
C1018: x34+x46 <=1 
C1019: x34+x47 <=1 
C1020: x34+x48 <=1 
C1021: x34+x49 <=1 
C1022: x34+x50 <=1 
C1023: x34+x51-y34_51 <=1 
C1024: x34+x53 <=1 
C1025: x34+x54 <=1 
C1026: x34+x57 <=1 
C1027: x34+x58 <=1 
C1028: x34+x61 <=1 
C1029: x34+x64 <=1 
C1030: x34+x65 <=1 
C1031: x34+x66-y34_66 <=1 
C1032: x34+x67 <=1 
C1033: x35+x36-y35_36 <=1 
C1034: x35+x38 <=1 
C1035: x35+x40 <=1 
C1036: x35+x41-y35_41 <=1 
C1037: x35+x42 <=1 
C1038: x35+x43 <=1 
C1039: x35+x44-y35_44 <=1 
C1040: x35+x45 <=1 
C1041: x35+x47 <=1 
C1042: x35+x48 <=1 
C1043: x35+x50 <=1 
C1044: x35+x51-y35_51 <=1 
C1045: x35+x52 <=1 
C1046: x35+x53-y35_53 <=1 
C1047: x35+x55-y35_55 <=1 
C1048: x35+x56 <=1 
C1049: x35+x57 <=1 
C1050: x35+x58 <=1 
C1051: x35+x60-y35_60 <=1 
C1052: x35+x61-y35_61 <=1 
C1053: x35+x62-y35_62 <=1 
C1054: x35+x63 <=1 
C1055: x35+x67-y35_67 <=1 
C1056: x36+x37-y36_37 <=1 
C1057: x36+x38-y36_38 <=1 
C1058: x36+x39-y36_39 <=1 
C1059: x36+x40 <=1 
C1060: x36+x41-y36_41 <=1 
C1061: x36+x42 <=1 
C1062: x36+x45 <=1 
C1063: x36+x48 <=1 
C1064: x36+x49-y36_49 <=1 
C1065: x36+x52-y36_52 <=1 
C1066: x36+x55 <=1 
C1067: x36+x56-y36_56 <=1 
C1068: x36+x59-y36_59 <=1 
C1069: x36+x60-y36_60 <=1 
C1070: x36+x61-y36_61 <=1 
C1071: x36+x64 <=1 
C1072: x36+x65-y36_65 <=1 
C1073: x36+x66 <=1 
C1074: x36+x68-y36_68 <=1 
C1075: x37+x38-y37_38 <=1 
C1076: x37+x40 <=1 
C1077: x37+x41 <=1 
C1078: x37+x42-y37_42 <=1 
C1079: x37+x43-y37_43 <=1 
C1080: x37+x44 <=1 
C1081: x37+x45 <=1 
C1082: x37+x46 <=1 
C1083: x37+x48 <=1 
C1084: x37+x50-y37_50 <=1 
C1085: x37+x51 <=1 
C1086: x37+x52-y37_52 <=1 
C1087: x37+x55 <=1 
C1088: x37+x56 <=1 
C1089: x37+x57-y37_57 <=1 
C1090: x37+x59 <=1 
C1091: x37+x61 <=1 
C1092: x37+x62 <=1 
C1093: x37+x63-y37_63 <=1 
C1094: x37+x65-y37_65 <=1 
C1095: x37+x66-y37_66 <=1 
C1096: x38+x39-y38_39 <=1 
C1097: x38+x40-y38_40 <=1 
C1098: x38+x41 <=1 
C1099: x38+x45-y38_45 <=1 
C1100: x38+x46-y38_46 <=1 
C1101: x38+x47-y38_47 <=1 
C1102: x38+x48 <=1 
C1103: x38+x49-y38_49 <=1 
C1104: x38+x50 <=1 
C1105: x38+x52-y38_52 <=1 
C1106: x38+x57 <=1 
C1107: x38+x58-y38_58 <=1 
C1108: x38+x59-y38_59 <=1 
C1109: x38+x60 <=1 
C1110: x38+x62-y38_62 <=1 
C1111: x38+x63-y38_63 <=1 
C1112: x38+x64-y38_64 <=1 
C1113: x38+x66 <=1 
C1114: x39+x50-y39_50 <=1 
C1115: x39+x51 <=1 
C1116: x39+x52 <=1 
C1117: x39+x53 <=1 
C1118: x39+x55 <=1 
C1119: x39+x59-y39_59 <=1 
C1120: x39+x63-y39_63 <=1 
C1121: x39+x64-y39_64 <=1 
C1122: x39+x67 <=1 
C1123: x39+x68 <=1 
C1124: x40+x41-y40_41 <=1 
C1125: x40+x42 <=1 
C1126: x40+x44-y40_44 <=1 
C1127: x40+x45 <=1 
C1128: x40+x46-y40_46 <=1 
C1129: x40+x47-y40_47 <=1 
C1130: x40+x48 <=1 
C1131: x40+x51-y40_51 <=1 
C1132: x40+x52-y40_52 <=1 
C1133: x40+x53 <=1 
C1134: x40+x55 <=1 
C1135: x40+x56-y40_56 <=1 
C1136: x40+x57 <=1 
C1137: x40+x58-y40_58 <=1 
C1138: x40+x59-y40_59 <=1 
C1139: x40+x61 <=1 
C1140: x40+x62-y40_62 <=1 
C1141: x40+x64 <=1 
C1142: x41+x43 <=1 
C1143: x41+x44 <=1 
C1144: x41+x47-y41_47 <=1 
C1145: x41+x50-y41_50 <=1 
C1146: x41+x51 <=1 
C1147: x41+x52-y41_52 <=1 
C1148: x41+x54-y41_54 <=1 
C1149: x41+x55 <=1 
C1150: x41+x57 <=1 
C1151: x41+x58 <=1 
C1152: x41+x59 <=1 
C1153: x41+x61 <=1 
C1154: x41+x62 <=1 
C1155: x41+x64-y41_64 <=1 
C1156: x41+x66 <=1 
C1157: x41+x68 <=1 
C1158: x42+x43-y42_43 <=1 
C1159: x42+x44-y42_44 <=1 
C1160: x42+x46 <=1 
C1161: x42+x47 <=1 
C1162: x42+x51-y42_51 <=1 
C1163: x42+x52 <=1 
C1164: x42+x56 <=1 
C1165: x42+x59 <=1 
C1166: x42+x60-y42_60 <=1 
C1167: x42+x61 <=1 
C1168: x42+x63-y42_63 <=1 
C1169: x42+x64 <=1 
C1170: x42+x68 <=1 
C1171: x43+x44 <=1 
C1172: x43+x46-y43_46 <=1 
C1173: x43+x47-y43_47 <=1 
C1174: x43+x48-y43_48 <=1 
C1175: x43+x49 <=1 
C1176: x43+x50-y43_50 <=1 
C1177: x43+x52 <=1 
C1178: x43+x54 <=1 
C1179: x43+x55 <=1 
C1180: x43+x56-y43_56 <=1 
C1181: x43+x58-y43_58 <=1 
C1182: x43+x59-y43_59 <=1 
C1183: x43+x61 <=1 
C1184: x43+x66 <=1 
C1185: x43+x68-y43_68 <=1 
C1186: x44+x45 <=1 
C1187: x44+x46-y44_46 <=1 
C1188: x44+x47 <=1 
C1189: x44+x48-y44_48 <=1 
C1190: x44+x49 <=1 
C1191: x44+x51 <=1 
C1192: x44+x55-y44_55 <=1 
C1193: x44+x56-y44_56 <=1 
C1194: x44+x59 <=1 
C1195: x44+x61-y44_61 <=1 
C1196: x44+x65 <=1 
C1197: x44+x67 <=1 
C1198: x44+x68-y44_68 <=1 
C1199: x45+x51 <=1 
C1200: x45+x53 <=1 
C1201: x45+x55 <=1 
C1202: x45+x56 <=1 
C1203: x45+x57-y45_57 <=1 
C1204: x45+x60-y45_60 <=1 
C1205: x45+x61-y45_61 <=1 
C1206: x45+x62 <=1 
C1207: x45+x64-y45_64 <=1 
C1208: x45+x68-y45_68 <=1 
C1209: x46+x47 <=1 
C1210: x46+x48 <=1 
C1211: x46+x50-y46_50 <=1 
C1212: x46+x51 <=1 
C1213: x46+x52 <=1 
C1214: x46+x53 <=1 
C1215: x46+x54 <=1 
C1216: x46+x57-y46_57 <=1 
C1217: x46+x58 <=1 
C1218: x46+x61-y46_61 <=1 
C1219: x46+x63 <=1 
C1220: x46+x65 <=1 
C1221: x46+x66 <=1 
C1222: x46+x68-y46_68 <=1 
C1223: x47+x50-y47_50 <=1 
C1224: x47+x51 <=1 
C1225: x47+x52 <=1 
C1226: x47+x53 <=1 
C1227: x47+x55 <=1 
C1228: x47+x58-y47_58 <=1 
C1229: x47+x59 <=1 
C1230: x47+x63-y47_63 <=1 
C1231: x47+x66-y47_66 <=1 
C1232: x47+x67-y47_67 <=1 
C1233: x48+x49-y48_49 <=1 
C1234: x48+x50 <=1 
C1235: x48+x51 <=1 
C1236: x48+x52-y48_52 <=1 
C1237: x48+x53-y48_53 <=1 
C1238: x48+x54-y48_54 <=1 
C1239: x48+x56 <=1 
C1240: x48+x57 <=1 
C1241: x48+x61-y48_61 <=1 
C1242: x48+x62 <=1 
C1243: x48+x64 <=1 
C1244: x48+x66 <=1 
C1245: x49+x51 <=1 
C1246: x49+x52 <=1 
C1247: x49+x54-y49_54 <=1 
C1248: x49+x55-y49_55 <=1 
C1249: x49+x56 <=1 
C1250: x49+x58 <=1 
C1251: x49+x59 <=1 
C1252: x49+x61-y49_61 <=1 
C1253: x49+x62-y49_62 <=1 
C1254: x49+x63 <=1 
C1255: x49+x64 <=1 
C1256: x49+x65-y49_65 <=1 
C1257: x49+x66 <=1 
C1258: x49+x67-y49_67 <=1 
C1259: x50+x52 <=1 
C1260: x50+x53-y50_53 <=1 
C1261: x50+x54-y50_54 <=1 
C1262: x50+x55-y50_55 <=1 
C1263: x50+x57-y50_57 <=1 
C1264: x50+x58-y50_58 <=1 
C1265: x50+x59-y50_59 <=1 
C1266: x50+x60 <=1 
C1267: x50+x61-y50_61 <=1 
C1268: x50+x63 <=1 
C1269: x50+x64 <=1 
C1270: x50+x66 <=1 
C1271: x50+x67-y50_67 <=1 
C1272: x51+x53-y51_53 <=1 
C1273: x51+x55 <=1 
C1274: x51+x58-y51_58 <=1 
C1275: x51+x62-y51_62 <=1 
C1276: x51+x63 <=1 
C1277: x51+x67-y51_67 <=1 
C1278: x51+x68-y51_68 <=1 
C1279: x52+x54 <=1 
C1280: x52+x56 <=1 
C1281: x52+x59 <=1 
C1282: x52+x60 <=1 
C1283: x52+x61 <=1 
C1284: x52+x62 <=1 
C1285: x52+x64-y52_64 <=1 
C1286: x52+x65-y52_65 <=1 
C1287: x52+x66 <=1 
C1288: x53+x54-y53_54 <=1 
C1289: x53+x55 <=1 
C1290: x53+x56 <=1 
C1291: x53+x57-y53_57 <=1 
C1292: x53+x59 <=1 
C1293: x53+x60-y53_60 <=1 
C1294: x53+x61 <=1 
C1295: x53+x62 <=1 
C1296: x53+x63-y53_63 <=1 
C1297: x53+x66-y53_66 <=1 
C1298: x53+x67-y53_67 <=1 
C1299: x54+x58-y54_58 <=1 
C1300: x54+x59-y54_59 <=1 
C1301: x54+x63-y54_63 <=1 
C1302: x54+x64 <=1 
C1303: x54+x66-y54_66 <=1 
C1304: x55+x57 <=1 
C1305: x55+x58-y55_58 <=1 
C1306: x55+x60-y55_60 <=1 
C1307: x55+x61 <=1 
C1308: x55+x63 <=1 
C1309: x55+x64 <=1 
C1310: x55+x66 <=1 
C1311: x55+x67-y55_67 <=1 
C1312: x55+x68-y55_68 <=1 
C1313: x56+x57 <=1 
C1314: x56+x58 <=1 
C1315: x56+x59 <=1 
C1316: x56+x60-y56_60 <=1 
C1317: x56+x61 <=1 
C1318: x56+x62-y56_62 <=1 
C1319: x56+x66 <=1 
C1320: x57+x58-y57_58 <=1 
C1321: x57+x60-y57_60 <=1 
C1322: x57+x61 <=1 
C1323: x57+x62 <=1 
C1324: x57+x63-y57_63 <=1 
C1325: x57+x64-y57_64 <=1 
C1326: x57+x65 <=1 
C1327: x57+x67-y57_67 <=1 
C1328: x58+x61 <=1 
C1329: x58+x64-y58_64 <=1 
C1330: x58+x65 <=1 
C1331: x58+x66 <=1 
C1332: x59+x60 <=1 
C1333: x59+x62 <=1 
C1334: x59+x64 <=1 
C1335: x59+x65 <=1 
C1336: x59+x66 <=1 
C1337: x59+x67 <=1 
C1338: x59+x68 <=1 
C1339: x60+x61-y60_61 <=1 
C1340: x60+x62-y60_62 <=1 
C1341: x60+x64-y60_64 <=1 
C1342: x60+x65 <=1 
C1343: x60+x66-y60_66 <=1 
C1344: x60+x67 <=1 
C1345: x61+x65-y61_65 <=1 
C1346: x61+x67 <=1 
C1347: x62+x63-y62_63 <=1 
C1348: x62+x66 <=1 
C1349: x62+x67 <=1 
C1350: x62+x68 <=1 
C1351: x63+x64-y63_64 <=1 
C1352: x63+x67 <=1 
C1353: x63+x68-y63_68 <=1 
C1354: x64+x66 <=1 
C1355: x64+x67-y64_67 <=1 
C1356: x64+x68 <=1 
C1357: x65+x66-y65_66 <=1 
C1358: x65+x67-y65_67 <=1 
C1359: x66+x67-y66_67 <=1 
C1360: x66+x68-y66_68 <=1 

binary
x0
x1
x2
x3
x4
x5
x6
x7
x8
x9
x10
x11
x12
x13
x14
x15
x16
x17
x18
x19
x20
x21
x22
x23
x24
x25
x26
x27
x28
x29
x30
x31
x32
x33
x34
x35
x36
x37
x38
x39
x40
x41
x42
x43
x44
x45
x46
x47
x48
x49
x50
x51
x52
x53
x54
x55
x56
x57
x58
x59
x60
x61
x62
x63
x64
x65
x66
x67
x68
