problem_generation/data/GISP/train/er_n=69_m=1360_p=0.60_SET2_setparam=100.00_alpha=0.50_341.sol
objective value:                                 1267
x1                                                  1 	(obj:100)
x5                                                  1 	(obj:100)
x7                                                  1 	(obj:100)
x10                                                 1 	(obj:100)
x19                                                 1 	(obj:100)
x25                                                 1 	(obj:100)
x31                                                 1 	(obj:100)
x43                                                 1 	(obj:100)
x45                                                 1 	(obj:100)
x57                                                 1 	(obj:100)
x58                                                 1 	(obj:100)
x64                                                 1 	(obj:100)
x67                                                 1 	(obj:100)
y25_43                                              1 	(obj:-1)
y10_31                                              1 	(obj:-1)
y1_67                                               1 	(obj:-1)
y31_67                                              1 	(obj:-1)
y5_45                                               1 	(obj:-1)
y10_25                                              1 	(obj:-1)
y31_57                                              1 	(obj:-1)
y43_58                                              1 	(obj:-1)
y5_31                                               1 	(obj:-1)
y5_58                                               1 	(obj:-1)
y31_43                                              1 	(obj:-1)
y64_67                                              1 	(obj:-1)
y57_64                                              1 	(obj:-1)
y1_10                                               1 	(obj:-1)
y1_19                                               1 	(obj:-1)
y5_7                                                1 	(obj:-1)
y45_57                                              1 	(obj:-1)
y57_58                                              1 	(obj:-1)
y19_31                                              1 	(obj:-1)
y7_25                                               1 	(obj:-1)
y19_25                                              1 	(obj:-1)
y7_10                                               1 	(obj:-1)
y5_67                                               1 	(obj:-1)
y25_45                                              1 	(obj:-1)
y5_57                                               1 	(obj:-1)
y1_64                                               1 	(obj:-1)
y5_43                                               1 	(obj:-1)
y58_64                                              1 	(obj:-1)
y31_64                                              1 	(obj:-1)
y57_67                                              1 	(obj:-1)
y31_45                                              1 	(obj:-1)
y45_64                                              1 	(obj:-1)
y25_67                                              1 	(obj:-1)
